(set-info :source |printed by MathSAT|)
(declare-fun retard0 () Bool)
(declare-fun call__main_.call_hypothese2.ok () Bool)
(declare-fun call__main_.diff0 () Int)
(declare-fun call__main_.nB1 () Int)
(declare-fun diff1 () Int)
(declare-fun nS () Int)
(declare-fun call_Sofar.flby () Bool)
(declare-fun nB1 () Int)
(declare-fun call__main_.retard1 () Bool)
(declare-fun call__main_.call_hypothese2.flby2 () Int)
(declare-fun call__main_.call_hypothese2.flby () Bool)
(declare-fun call__main_.call_controleur.retard () Bool)
(declare-fun flby2 () Bool)
(declare-fun diff0 () Int)
(declare-fun call__main_.call_controleur2.retard () Bool)
(declare-fun call__main_.call_hypothese2.c () Int)
(declare-fun call__main_.retard0 () Bool)
(declare-fun pOK () Bool)
(declare-fun call__main_.call_controleur2.avance () Bool)
(declare-fun avance0 () Bool)
(declare-fun call__main_.call_controleur2.diff () Int)
(declare-fun call__main_.flby () Int)
(declare-fun call__main_._H0_ () Bool)
(declare-fun call__main_.call_hypothese.c () Int)
(declare-fun call__main_.call_controleur.avance () Bool)
(declare-fun avance1 () Bool)
(declare-fun call__main_.diff1 () Int)
(declare-fun call__main_.call_controleur.flby2 () Bool)
(declare-fun call__main_.call_hypothese.flby2 () Int)
(declare-fun call__main_.call_controleur.flby () Bool)
(declare-fun call__main_.avance0 () Bool)
(declare-fun call__main_.call_controleur2.flby () Bool)
(declare-fun call__main_.call_controleur2.flby2 () Bool)
(declare-fun call_Sofar.Sofar () Bool)
(declare-fun retard1 () Bool)
(declare-fun call__main_.flby2 () Int)
(declare-fun call__main_.avance1 () Bool)
(declare-fun ast () Bool)
(declare-fun call__main_.call_controleur.diff () Int)
(declare-fun call__main_.flby3 () Int)
(declare-fun call__main_.nS () Int)
(declare-fun _OK_ () Bool)
(declare-fun call__main_.nB0 () Int)
(declare-fun call__main_._H1_ () Bool)
(declare-fun call__main_.call_hypothese.flby () Bool)
(declare-fun call__main_.call_hypothese.ok () Bool)
(declare-fun nB0 () Int)
(declare-fun call__main_.ast () Bool)
(declare-fun flby () Bool)
(define-fun .def_669 () Bool (= call_Sofar.flby call_Sofar.Sofar))
(define-fun .def_667 () Bool (= call__main_.call_controleur2.flby2 call__main_.call_controleur2.retard))
(define-fun .def_665 () Bool (= call__main_.call_controleur2.flby call__main_.call_controleur2.avance))
(define-fun .def_660 () Int (* (- 1) call__main_.call_controleur2.diff))
(define-fun .def_648 () Int (* (- 1) call__main_.nS))
(define-fun .def_661 () Int (+ .def_648 .def_660))
(define-fun .def_662 () Int (+ call__main_.nB1 .def_661))
(define-fun .def_663 () Bool (= .def_662 0))
(define-fun .def_655 () Bool (= call__main_.call_controleur.flby2 call__main_.call_controleur.retard))
(define-fun .def_653 () Bool (= call__main_.call_controleur.flby call__main_.call_controleur.avance))
(define-fun .def_647 () Int (* (- 1) call__main_.call_controleur.diff))
(define-fun .def_649 () Int (+ .def_648 .def_647))
(define-fun .def_650 () Int (+ call__main_.nB0 .def_649))
(define-fun .def_651 () Bool (= .def_650 0))
(define-fun .def_642 () Bool (= call__main_.call_hypothese2.flby2 call__main_.call_hypothese2.c))
(define-fun .def_639 () Bool (= call__main_.call_hypothese2.flby call__main_.call_hypothese2.ok))
(define-fun .def_637 () Bool (= call__main_.call_hypothese.flby2 call__main_.call_hypothese.c))
(define-fun .def_634 () Bool (= call__main_.call_hypothese.flby call__main_.call_hypothese.ok))
(define-fun .def_632 () Bool (= call__main_._H1_ call__main_.call_hypothese2.ok))
(define-fun .def_629 () Bool (= call__main_._H0_ call__main_.call_hypothese.ok))
(define-fun .def_626 () Bool (= call__main_.retard1 call__main_.call_controleur2.retard))
(define-fun .def_623 () Bool (= call__main_.retard0 call__main_.call_controleur.retard))
(define-fun .def_620 () Bool (= call__main_.avance1 call__main_.call_controleur2.avance))
(define-fun .def_617 () Bool (= call__main_.avance0 call__main_.call_controleur.avance))
(define-fun .def_614 () Bool (= call__main_.diff1 call__main_.call_controleur2.diff))
(define-fun .def_611 () Bool (= call__main_.diff0 call__main_.call_controleur.diff))
(define-fun .def_608 () Bool (= call__main_.flby3 call__main_.nS))
(define-fun .def_606 () Bool (= call__main_.flby2 call__main_.nB1))
(define-fun .def_604 () Bool (= call__main_.flby call__main_.nB0))
(define-fun .def_601 () Bool (and call__main_._H0_ call__main_._H1_))
(define-fun .def_602 () Bool (= call__main_.ast .def_601))
(define-fun .def_597 () Bool (= ast call__main_.ast))
(define-fun .def_594 () Bool (= flby pOK))
(define-fun .def_591 () Bool (= retard1 call__main_.retard1))
(define-fun .def_587 () Bool (= retard0 call__main_.retard0))
(define-fun .def_583 () Bool (= avance1 call__main_.avance1))
(define-fun .def_579 () Bool (= avance0 call__main_.avance0))
(define-fun .def_575 () Bool (= diff1 call__main_.diff1))
(define-fun .def_571 () Bool (= diff0 call__main_.diff0))
(define-fun .def_568 () Bool (= nS call__main_.nS))
(define-fun .def_565 () Bool (= nB1 call__main_.nB1))
(define-fun .def_562 () Bool (= nB0 call__main_.nB0))
(define-fun .def_558 () Bool (not call_Sofar.Sofar))
(define-fun .def_559 () Bool (or flby2 .def_558))
(define-fun .def_560 () Bool (= _OK_ .def_559))
(define-fun .def_563 () Bool (and .def_560 .def_562))
(define-fun .def_566 () Bool (and .def_563 .def_565))
(define-fun .def_569 () Bool (and .def_566 .def_568))
(define-fun .def_572 () Bool (and .def_569 .def_571))
(define-fun .def_576 () Bool (and .def_572 .def_575))
(define-fun .def_580 () Bool (and .def_576 .def_579))
(define-fun .def_584 () Bool (and .def_580 .def_583))
(define-fun .def_588 () Bool (and .def_584 .def_587))
(define-fun .def_592 () Bool (and .def_588 .def_591))
(define-fun .def_595 () Bool (and .def_592 .def_594))
(define-fun .def_598 () Bool (and .def_595 .def_597))
(define-fun .def_603 () Bool (and .def_598 .def_602))
(define-fun .def_605 () Bool (and .def_603 .def_604))
(define-fun .def_607 () Bool (and .def_605 .def_606))
(define-fun .def_609 () Bool (and .def_607 .def_608))
(define-fun .def_612 () Bool (and .def_609 .def_611))
(define-fun .def_615 () Bool (and .def_612 .def_614))
(define-fun .def_618 () Bool (and .def_615 .def_617))
(define-fun .def_621 () Bool (and .def_618 .def_620))
(define-fun .def_624 () Bool (and .def_621 .def_623))
(define-fun .def_627 () Bool (and .def_624 .def_626))
(define-fun .def_630 () Bool (and .def_627 .def_629))
(define-fun .def_633 () Bool (and .def_630 .def_632))
(define-fun .def_635 () Bool (and .def_633 .def_634))
(define-fun .def_638 () Bool (and .def_635 .def_637))
(define-fun .def_640 () Bool (and .def_638 .def_639))
(define-fun .def_643 () Bool (and .def_640 .def_642))
(define-fun .def_652 () Bool (and .def_643 .def_651))
(define-fun .def_654 () Bool (and .def_652 .def_653))
(define-fun .def_656 () Bool (and .def_654 .def_655))
(define-fun .def_664 () Bool (and .def_656 .def_663))
(define-fun .def_666 () Bool (and .def_664 .def_665))
(define-fun .def_668 () Bool (and .def_666 .def_667))
(define-fun .def_670 () Bool (and .def_668 .def_669))
(define-fun .def_553 () Bool (not call__main_.call_controleur2.flby2))
(define-fun .def_550 () Bool (not call__main_.call_controleur2.flby))
(define-fun .def_547 () Bool (not call__main_.call_controleur.flby2))
(define-fun .def_544 () Bool (not call__main_.call_controleur.flby))
(define-fun .def_541 () Bool (= call__main_.call_hypothese2.flby2 0))
(define-fun .def_536 () Bool (= call__main_.call_hypothese.flby2 0))
(define-fun .def_531 () Bool (= call__main_.flby3 0))
(define-fun .def_528 () Bool (= call__main_.flby2 0))
(define-fun .def_525 () Bool (= call__main_.flby 0))
(define-fun .def_523 () Bool (and flby2 flby))
(define-fun .def_526 () Bool (and .def_523 .def_525))
(define-fun .def_529 () Bool (and .def_526 .def_528))
(define-fun .def_532 () Bool (and .def_529 .def_531))
(define-fun .def_534 () Bool (and .def_532 call__main_.call_hypothese.flby))
(define-fun .def_537 () Bool (and .def_534 .def_536))
(define-fun .def_539 () Bool (and .def_537 call__main_.call_hypothese2.flby))
(define-fun .def_542 () Bool (and .def_539 .def_541))
(define-fun .def_545 () Bool (and .def_542 .def_544))
(define-fun .def_548 () Bool (and .def_545 .def_547))
(define-fun .def_551 () Bool (and .def_548 .def_550))
(define-fun .def_554 () Bool (and .def_551 .def_553))
(define-fun .def_516 () Bool (<= 32767 diff0))
(define-fun .def_517 () Bool (not .def_516))
(define-fun .def_512 () Bool (<= 1 nS))
(define-fun .def_513 () Bool (not .def_512))
(define-fun .def_508 () Bool (<= 1 nB1))
(define-fun .def_509 () Bool (not .def_508))
(define-fun .def_503 () Bool (<= 1 nB0))
(define-fun .def_504 () Bool (not .def_503))
(define-fun .def_506 () Bool (and .def_504 ast))
(define-fun .def_510 () Bool (and .def_506 .def_509))
(define-fun .def_514 () Bool (and .def_510 .def_513))
(define-fun .def_518 () Bool (and .def_514 .def_517))
(define-fun .def_520 () Bool (= .def_518 call_Sofar.flby))
(define-fun .def_555 () Bool (and .def_520 .def_554))
(define-fun .def_671 () Bool (and .def_555 .def_670))
(assert .def_671)
